language ESSENCE' 1.0

letting jobs = 102
letting horizon = 812
letting resourcesRenew = 2
letting resourcesNonrenew = 2
letting resourceLimits = [59, 56, 261, 302]
letting successors = [[2, 3, 4, 5, 6, 7, 8, 9, 10, 11, 12, 13, 14, 15, 16, 17, 18, 19, 20, 22, 23, 24, 25, 27, 28, 29, 30, 31, 32, 33, 35, 44, 45, 48, 49], [100, 93, 90, 74, 56, 55, 47, 46, 40, 39, 38, 36, 21], [101, 99, 98, 97, 96, 88, 73, 72, 69, 67, 62, 61, 59, 57, 56, 54, 46, 40, 37], [101, 100, 99, 91, 73, 69, 60, 58, 56, 50, 46, 39, 37, 26], [100, 99, 97, 89, 88, 74, 73, 72, 69, 58, 54, 52, 50, 46, 40, 37], [101, 97, 92, 91, 71, 70, 69, 64, 60, 58, 56, 55, 41, 37, 26], [101, 100, 97, 96, 88, 83, 74, 73, 70, 69, 65, 60, 59, 58, 56, 55, 54, 42, 40], [101, 97, 95, 94, 89, 70, 66, 65, 64, 61, 59, 58, 57, 52, 40, 34], [101, 96, 95, 94, 93, 74, 73, 69, 65, 59, 47, 46, 42, 40, 39], [101, 99, 97, 93, 89, 88, 74, 73, 72, 70, 69, 66, 58, 57, 54, 53, 43, 40], [100, 97, 95, 94, 91, 90, 73, 70, 69, 66, 64, 63, 55, 53, 52, 50, 39], [101, 99, 97, 96, 95, 93, 90, 87, 72, 70, 69, 66, 65, 62, 58, 54, 40, 39], [100, 99, 98, 94, 92, 90, 86, 74, 72, 69, 63, 62, 53, 51, 46, 41], [101, 97, 96, 95, 94, 92, 91, 89, 88, 62, 57, 54, 53, 46, 34], [98, 87, 73, 69, 66, 65, 64, 63, 54, 47, 42, 39, 37], [100, 99, 98, 97, 94, 93, 91, 90, 87, 86, 74, 71, 70, 69, 68, 64, 63, 58, 55, 39], [101, 96, 70, 69, 66, 64, 63, 62, 58, 54, 43, 41], [101, 100, 97, 96, 94, 93, 92, 90, 89, 88, 85, 82, 73, 72, 65, 64, 63, 62, 61, 60, 57], [101, 100, 99, 96, 91, 90, 86, 85, 80, 74, 71, 70, 69, 68, 64, 55, 41], [101, 100, 98, 95, 94, 92, 88, 82, 80, 79, 71, 70, 61, 59, 54, 52], [98, 97, 94, 92, 91, 89, 88, 87, 86, 79, 76, 69, 68, 64, 58, 54, 53], [95, 90, 89, 88, 86, 84, 81, 71, 65, 58, 46], [97, 96, 93, 92, 90, 87, 86, 85, 83, 82, 79, 78, 77, 74, 69, 62, 59], [100, 94, 93, 92, 90, 86, 83, 82, 78, 77, 73, 72, 69, 68, 63, 55], [94, 93, 92, 91, 90, 89, 88, 87, 85, 84, 79, 76, 75, 70, 66, 58], [98, 95, 94, 93, 90, 88, 85, 84, 82, 79, 77, 72, 66, 63, 62], [95, 92, 89, 88, 87, 86, 85, 83, 82, 81, 78, 77, 73, 69, 68, 63], [99, 95, 92, 91, 88, 87, 84, 79, 72, 57, 50], [97, 96, 93, 90, 87, 86, 85, 82, 80, 77, 73, 69, 68, 64], [95, 94, 91, 89, 86, 85, 83, 76, 69, 65, 63, 58], [92, 90, 88, 86, 82, 78, 77, 63, 59, 57, 55], [96, 95, 94, 89, 85, 84, 83, 80, 79, 78, 77, 71, 68, 57], [98, 97, 93, 92, 89, 87, 86, 85, 82, 79, 77, 76, 75, 64], [100, 99, 90, 83, 82, 77, 76, 69, 68, 63, 55], [92, 91, 90, 83, 81, 80, 79, 76, 71, 70, 56], [96, 95, 87, 86, 84, 81, 79, 77, 72, 71, 62], [95, 94, 93, 90, 86, 84, 83, 82, 78, 77, 76, 75], [98, 94, 85, 83, 82, 81, 79, 77, 75, 66], [92, 89, 88, 85, 80, 79, 78, 77, 57], [92, 91, 81, 79, 78, 77, 76, 71, 63], [93, 89, 88, 82, 81, 77, 76, 75, 65], [90, 89, 84, 82, 81, 80, 77, 62], [98, 91, 90, 87, 82, 80, 79, 76, 68], [89, 88, 87, 83, 81, 79, 78, 76, 68], [91, 89, 88, 80, 78, 68, 57], [87, 85, 76, 70, 68, 64], [99, 88, 81, 80, 79, 78, 76, 75], [98, 94, 93, 91, 88, 82, 68], [91, 85, 84, 79, 70, 68], [96, 85, 83, 82, 80, 78, 76], [95, 80, 77, 76, 64], [93, 87, 83, 62], [83, 82, 78, 77, 75], [85, 81, 78, 75], [84, 81, 79, 75], [94, 87, 77, 75], [81, 76, 75], [82, 80, 77], [91, 81, 76], [87, 86, 77], [86, 76, 75], [76, 68], [80, 75], [83, 78], [79, 78], [86, 78], [89, 79], [75], [84], [77], [75], [75], [76], [84], [102], [102], [102], [102], [102], [102], [102], [102], [102], [102], [102], [102], [102], [102], [102], [102], [102], [102], [102], [102], [102], [102], [102], [102], [102], [102], [102], []]
letting durations = [[0], [3, 4, 10], [2, 2, 10], [4, 7, 7], [2, 3, 7], [4, 5, 10], [3, 6, 10], [6, 6, 9], [1, 6, 7], [1, 2, 5], [1, 3, 6], [1, 5, 10], [5, 6, 6], [4, 7, 10], [2, 4, 6], [2, 2, 7], [3, 6, 8], [7, 7, 8], [4, 5, 7], [2, 4, 4], [4, 5, 8], [2, 3, 5], [7, 8, 10], [2, 4, 8], [1, 5, 8], [4, 7, 9], [1, 6, 7], [4, 5, 7], [3, 8, 10], [7, 9, 10], [1, 8, 9], [4, 9, 10], [2, 5, 7], [3, 7, 8], [1, 4, 7], [2, 3, 7], [2, 3, 9], [3, 8, 10], [2, 5, 10], [3, 5, 7], [6, 10, 10], [5, 7, 9], [3, 4, 8], [2, 4, 8], [2, 3, 9], [2, 4, 5], [2, 5, 7], [2, 9, 10], [1, 5, 6], [3, 7, 8], [1, 6, 8], [5, 5, 9], [3, 8, 8], [1, 3, 4], [5, 6, 8], [3, 4, 6], [2, 9, 10], [1, 2, 6], [5, 10, 10], [2, 4, 8], [6, 7, 9], [1, 7, 10], [6, 7, 10], [3, 5, 9], [2, 3, 9], [2, 6, 9], [3, 3, 4], [7, 8, 10], [2, 8, 8], [4, 7, 8], [4, 6, 8], [7, 8, 9], [2, 3, 7], [7, 9, 10], [4, 8, 10], [1, 2, 9], [6, 7, 8], [3, 4, 6], [2, 7, 10], [6, 7, 9], [7, 8, 10], [1, 1, 10], [1, 2, 10], [5, 5, 6], [1, 1, 8], [3, 7, 9], [2, 4, 6], [4, 6, 10], [2, 3, 7], [2, 3, 10], [2, 7, 7], [1, 5, 6], [2, 2, 6], [1, 2, 10], [3, 4, 9], [1, 4, 10], [1, 3, 8], [4, 6, 9], [1, 3, 4], [2, 7, 9], [1, 3, 6], [0]]
letting resourceUsage = [[[0, 0, 0, 0]], [[1, 4, 0, 3], [1, 3, 0, 2], [1, 1, 4, 0]], [[5, 3, 4, 0], [3, 3, 0, 2], [1, 3, 4, 0]], [[3, 1, 8, 0], [3, 1, 7, 0], [1, 1, 0, 5]], [[4, 1, 0, 9], [4, 1, 6, 0], [3, 1, 5, 0]], [[2, 2, 0, 7], [2, 2, 9, 0], [2, 2, 8, 0]], [[4, 3, 0, 8], [4, 2, 0, 7], [4, 1, 0, 6]], [[4, 2, 0, 6], [4, 2, 7, 0], [4, 2, 0, 3]], [[1, 4, 0, 8], [1, 3, 0, 5], [1, 3, 0, 4]], [[2, 1, 6, 0], [1, 1, 0, 1], [1, 1, 4, 0]], [[2, 2, 0, 6], [1, 2, 0, 5], [1, 2, 3, 0]], [[3, 3, 0, 5], [3, 2, 0, 4], [2, 1, 5, 0]], [[3, 2, 9, 0], [2, 1, 0, 7], [2, 1, 2, 0]], [[3, 5, 0, 6], [3, 3, 0, 6], [3, 3, 4, 0]], [[3, 4, 5, 0], [2, 3, 4, 0], [1, 2, 0, 5]], [[2, 5, 0, 8], [2, 3, 6, 0], [2, 2, 2, 0]], [[3, 2, 0, 9], [3, 1, 7, 0], [3, 1, 6, 0]], [[2, 5, 7, 0], [1, 5, 0, 7], [1, 5, 4, 0]], [[4, 3, 4, 0], [4, 2, 4, 0], [3, 2, 0, 4]], [[4, 4, 4, 0], [4, 4, 2, 0], [4, 4, 0, 1]], [[1, 3, 0, 5], [1, 1, 0, 3], [1, 1, 0, 2]], [[5, 2, 9, 0], [4, 2, 0, 4], [4, 1, 8, 0]], [[5, 5, 5, 0], [5, 2, 4, 0], [5, 1, 0, 4]], [[5, 3, 7, 0], [5, 3, 0, 6], [5, 2, 5, 0]], [[4, 4, 9, 0], [4, 4, 0, 6], [4, 4, 6, 0]], [[3, 3, 0, 8], [3, 2, 6, 0], [3, 1, 0, 8]], [[5, 2, 0, 8], [5, 2, 0, 7], [5, 2, 0, 5]], [[3, 4, 5, 0], [2, 3, 0, 6], [2, 2, 0, 4]], [[3, 4, 0, 6], [2, 4, 0, 6], [2, 4, 4, 0]], [[4, 3, 0, 5], [2, 2, 0, 5], [1, 1, 0, 5]], [[3, 3, 0, 8], [2, 3, 0, 5], [2, 3, 0, 2]], [[5, 3, 2, 0], [3, 2, 2, 0], [1, 2, 0, 2]], [[5, 3, 9, 0], [2, 3, 8, 0], [2, 3, 7, 0]], [[3, 4, 9, 0], [3, 4, 8, 0], [1, 3, 0, 8]], [[2, 4, 6, 0], [1, 4, 6, 0], [1, 4, 0, 4]], [[1, 4, 7, 0], [1, 4, 3, 0], [1, 4, 0, 7]], [[4, 3, 8, 0], [4, 3, 0, 9], [4, 3, 6, 0]], [[1, 5, 3, 0], [1, 4, 2, 0], [1, 3, 0, 8]], [[4, 5, 0, 7], [4, 5, 10, 0], [4, 5, 0, 6]], [[3, 4, 0, 4], [3, 4, 5, 0], [1, 4, 2, 0]], [[4, 3, 0, 10], [3, 2, 3, 0], [1, 2, 0, 4]], [[3, 3, 0, 1], [2, 3, 0, 1], [2, 1, 0, 1]], [[3, 3, 0, 9], [3, 3, 8, 0], [3, 3, 0, 8]], [[1, 3, 5, 0], [1, 2, 5, 0], [1, 2, 0, 5]], [[2, 4, 9, 0], [2, 4, 0, 2], [2, 4, 6, 0]], [[3, 5, 5, 0], [3, 3, 4, 0], [3, 1, 3, 0]], [[4, 4, 0, 8], [3, 4, 4, 0], [1, 4, 2, 0]], [[4, 3, 0, 5], [4, 2, 6, 0], [3, 1, 6, 0]], [[2, 2, 0, 5], [1, 1, 0, 4], [1, 1, 0, 2]], [[5, 3, 0, 8], [4, 3, 2, 0], [4, 3, 0, 4]], [[3, 1, 6, 0], [3, 1, 0, 6], [2, 1, 6, 0]], [[4, 3, 5, 0], [4, 2, 0, 8], [4, 2, 3, 0]], [[2, 4, 0, 7], [2, 3, 2, 0], [2, 3, 0, 1]], [[5, 4, 5, 0], [4, 3, 4, 0], [2, 3, 0, 9]], [[3, 5, 2, 0], [3, 3, 1, 0], [3, 3, 0, 7]], [[4, 2, 0, 5], [3, 1, 6, 0], [1, 1, 0, 3]], [[4, 5, 7, 0], [4, 3, 4, 0], [2, 3, 3, 0]], [[2, 2, 0, 5], [1, 2, 6, 0], [1, 2, 0, 4]], [[3, 5, 10, 0], [3, 3, 0, 9], [1, 3, 8, 0]], [[2, 3, 8, 0], [2, 2, 6, 0], [2, 2, 0, 6]], [[4, 4, 0, 7], [3, 3, 0, 7], [3, 1, 0, 5]], [[2, 3, 9, 0], [2, 2, 8, 0], [2, 2, 0, 2]], [[4, 5, 0, 9], [4, 4, 2, 0], [2, 4, 0, 1]], [[3, 4, 4, 0], [3, 4, 3, 0], [2, 2, 0, 7]], [[4, 4, 0, 6], [4, 3, 0, 6], [3, 3, 0, 4]], [[3, 3, 0, 4], [2, 2, 0, 3], [1, 1, 3, 0]], [[3, 3, 0, 5], [3, 2, 0, 6], [3, 2, 0, 5]], [[4, 5, 9, 0], [4, 4, 8, 0], [4, 4, 7, 0]], [[3, 5, 0, 2], [1, 3, 2, 0], [1, 2, 0, 1]], [[4, 4, 0, 7], [4, 4, 0, 5], [3, 4, 0, 5]], [[4, 2, 0, 7], [4, 1, 5, 0], [4, 1, 4, 0]], [[2, 4, 8, 0], [1, 3, 7, 0], [1, 2, 5, 0]], [[4, 4, 5, 0], [3, 4, 0, 6], [3, 4, 2, 0]], [[4, 5, 0, 10], [3, 4, 0, 7], [2, 4, 2, 0]], [[4, 4, 0, 4], [4, 2, 0, 3], [4, 2, 3, 0]], [[3, 3, 6, 0], [3, 1, 5, 0], [3, 1, 4, 0]], [[5, 5, 2, 0], [4, 4, 0, 2], [2, 2, 0, 1]], [[3, 4, 10, 0], [3, 3, 9, 0], [3, 3, 8, 0]], [[4, 4, 5, 0], [2, 4, 0, 3], [2, 4, 1, 0]], [[5, 2, 0, 5], [5, 2, 6, 0], [5, 2, 0, 4]], [[1, 5, 0, 8], [1, 3, 0, 8], [1, 2, 2, 0]], [[5, 2, 8, 0], [3, 2, 0, 6], [2, 2, 0, 6]], [[4, 4, 6, 0], [3, 3, 6, 0], [3, 3, 0, 4]], [[4, 4, 0, 8], [4, 3, 2, 0], [4, 3, 0, 7]], [[5, 5, 0, 9], [3, 4, 5, 0], [3, 3, 0, 9]], [[4, 5, 0, 4], [2, 3, 0, 4], [1, 3, 0, 4]], [[5, 2, 9, 0], [4, 2, 0, 6], [4, 1, 4, 0]], [[3, 3, 9, 0], [1, 2, 0, 9], [1, 2, 0, 8]], [[4, 4, 10, 0], [3, 3, 9, 0], [2, 3, 0, 3]], [[4, 2, 0, 6], [3, 2, 0, 5], [3, 2, 0, 2]], [[4, 5, 10, 0], [4, 5, 0, 5], [3, 5, 8, 0]], [[4, 4, 0, 4], [4, 3, 6, 0], [4, 3, 5, 0]], [[5, 4, 0, 9], [4, 4, 6, 0], [4, 2, 5, 0]], [[4, 5, 5, 0], [3, 3, 0, 7], [3, 2, 4, 0]], [[2, 4, 0, 3], [2, 4, 0, 2], [1, 4, 0, 1]], [[1, 1, 0, 8], [1, 1, 0, 5], [1, 1, 5, 0]], [[4, 2, 6, 0], [3, 2, 0, 8], [1, 1, 4, 0]], [[5, 5, 0, 7], [4, 4, 0, 6], [4, 4, 0, 5]], [[4, 5, 5, 0], [4, 5, 4, 0], [4, 5, 0, 3]], [[5, 5, 6, 0], [4, 5, 3, 0], [4, 5, 2, 0]], [[4, 3, 0, 5], [2, 3, 1, 0], [2, 2, 0, 4]], [[0, 0, 0, 0]]]
